solution status: optimal solution found
objective value:                     143452.006690819
d11(0,0)                                            1 	(obj:0)
d11(1,1)                                            1 	(obj:0)
d11(2,4)                                            1 	(obj:0)
d11(2,5)                                            1 	(obj:0)
d11(2,7)                                            1 	(obj:0)
d11(2,8)                                            1 	(obj:0)
d11(2,10)                                           1 	(obj:0)
d11(2,11)                                           1 	(obj:0)
d11(3,13)                                           1 	(obj:0)
d11(3,16)                                           1 	(obj:0)
d11(3,19)                                           1 	(obj:0)
d11(3,22)                                           1 	(obj:0)
d11(3,23)                                           1 	(obj:0)
d11(3,25)                                           1 	(obj:0)
d11(3,28)                                           1 	(obj:0)
d11(3,31)                                           1 	(obj:0)
d11(3,34)                                           1 	(obj:0)
d11(3,37)                                           1 	(obj:0)
d11(4,40)                                           1 	(obj:0)
d11(4,41)                                           1 	(obj:0)
d11(4,43)                                           1 	(obj:0)
d11(4,44)                                           1 	(obj:0)
d11(4,46)                                           1 	(obj:0)
d11(4,47)                                           1 	(obj:0)
d11(4,49)                                           1 	(obj:0)
d11(4,50)                                           1 	(obj:0)
d11(4,52)                                           1 	(obj:0)
d11(4,53)                                           1 	(obj:0)
d11(4,55)                                           1 	(obj:0)
d11(4,56)                                           1 	(obj:0)
d11(4,58)                                           1 	(obj:0)
d11(4,59)                                           1 	(obj:0)
d11(4,61)                                           1 	(obj:0)
d11(4,62)                                           1 	(obj:0)
d11(4,64)                                           1 	(obj:0)
d11(4,65)                                           1 	(obj:0)
d11(4,67)                                           1 	(obj:0)
d11(4,68)                                           1 	(obj:0)
d11(4,70)                                           1 	(obj:0)
d11(4,71)                                           1 	(obj:0)
d11(4,73)                                           1 	(obj:0)
d11(4,74)                                           1 	(obj:0)
d11(4,76)                                           1 	(obj:0)
d11(4,77)                                           1 	(obj:0)
d11(4,79)                                           1 	(obj:0)
d11(4,80)                                           1 	(obj:0)
d11(4,82)                                           1 	(obj:0)
d11(4,83)                                           1 	(obj:0)
d11(4,85)                                           1 	(obj:0)
d11(4,86)                                           1 	(obj:0)
d11(4,88)                                           1 	(obj:0)
d11(4,89)                                           1 	(obj:0)
d11(4,91)                                           1 	(obj:0)
d11(4,92)                                           1 	(obj:0)
d11(4,94)                                           1 	(obj:0)
d11(4,95)                                           1 	(obj:0)
d11(4,97)                                           1 	(obj:0)
d11(4,98)                                           1 	(obj:0)
d11(4,100)                                          1 	(obj:0)
d11(4,101)                                          1 	(obj:0)
d11(4,103)                                          1 	(obj:0)
d11(4,104)                                          1 	(obj:0)
d11(4,106)                                          1 	(obj:0)
d11(4,107)                                          1 	(obj:0)
d11(4,109)                                          1 	(obj:0)
d11(4,110)                                          1 	(obj:0)
d11(4,112)                                          1 	(obj:0)
d11(4,113)                                          1 	(obj:0)
d11(4,115)                                          1 	(obj:0)
d11(4,116)                                          1 	(obj:0)
d11(4,118)                                          1 	(obj:0)
d11(4,119)                                          1 	(obj:0)
d12(1,2)                                            1 	(obj:0)
d12(1,3)                                            1 	(obj:0)
d12(2,6)                                            1 	(obj:0)
d12(2,9)                                            1 	(obj:0)
d12(2,12)                                           1 	(obj:0)
d12(3,15)                                           1 	(obj:0)
d12(3,18)                                           1 	(obj:0)
d12(3,21)                                           1 	(obj:0)
d12(3,24)                                           1 	(obj:0)
d12(3,27)                                           1 	(obj:0)
d12(3,30)                                           1 	(obj:0)
d12(3,33)                                           1 	(obj:0)
d12(3,36)                                           1 	(obj:0)
d12(3,39)                                           1 	(obj:0)
d21(3,13)                                           1 	(obj:0)
d21(4,40)                                           1 	(obj:0)
d21(4,41)                                           1 	(obj:0)
d21(4,42)                                           1 	(obj:0)
d21(4,43)                                           1 	(obj:0)
d21(4,44)                                           1 	(obj:0)
d21(4,45)                                           1 	(obj:0)
d21(4,46)                                           1 	(obj:0)
d21(4,47)                                           1 	(obj:0)
d21(4,49)                                           1 	(obj:0)
d21(4,50)                                           1 	(obj:0)
d21(4,51)                                           1 	(obj:0)
d21(4,52)                                           1 	(obj:0)
d21(4,53)                                           1 	(obj:0)
d21(4,55)                                           1 	(obj:0)
d21(4,58)                                           1 	(obj:0)
d21(4,59)                                           1 	(obj:0)
d21(4,61)                                           1 	(obj:0)
d21(4,64)                                           1 	(obj:0)
d21(4,67)                                           1 	(obj:0)
d21(4,68)                                           1 	(obj:0)
d21(4,69)                                           1 	(obj:0)
d21(4,70)                                           1 	(obj:0)
d21(4,71)                                           1 	(obj:0)
d21(4,73)                                           1 	(obj:0)
d21(4,74)                                           1 	(obj:0)
d21(4,76)                                           1 	(obj:0)
d21(4,77)                                           1 	(obj:0)
d21(4,79)                                           1 	(obj:0)
d21(4,80)                                           1 	(obj:0)
d21(4,82)                                           1 	(obj:0)
d21(4,85)                                           1 	(obj:0)
d21(4,86)                                           1 	(obj:0)
d21(4,88)                                           1 	(obj:0)
d21(4,94)                                           1 	(obj:0)
d21(4,95)                                           1 	(obj:0)
d21(4,97)                                           1 	(obj:0)
d21(4,98)                                           1 	(obj:0)
d21(4,100)                                          1 	(obj:0)
d21(4,103)                                          1 	(obj:0)
d21(4,112)                                          1 	(obj:0)
STE(1,1)                             10739.4733430719 	(obj:0)
STE(0,0)                                        12600 	(obj:0)
STE(1,2)                                        11592 	(obj:0)
STE(1,3)                               12632.92163385 	(obj:0)
STE(2,4)                             8723.47334307197 	(obj:0)
STE(2,5)                             9720.23934640526 	(obj:0)
STE(2,6)                             10634.0395662148 	(obj:0)
STE(2,7)                             9576.00000000006 	(obj:0)
STE(2,8)                             10572.7660033333 	(obj:0)
STE(2,9)                             11486.5662231429 	(obj:0)
STE(2,10)                            10616.9216338501 	(obj:0)
STE(2,11)                            11613.6876371834 	(obj:0)
STE(2,12)                            12527.4878569929 	(obj:0)
STE(3,13)                            6718.70733973862 	(obj:0)
STE(3,14)                            7715.47334307197 	(obj:0)
STE(3,15)                            8628.03667692196 	(obj:0)
STE(3,16)                            7715.47334307191 	(obj:0)
STE(3,17)                            8712.23934640526 	(obj:0)
STE(3,18)                            9624.80268025525 	(obj:0)
STE(3,19)                            8629.27356288143 	(obj:0)
STE(3,20)                            9626.03956621478 	(obj:0)
STE(3,21)                            10538.6029000648 	(obj:0)
STE(3,22)                            7571.23399666671 	(obj:0)
STE(3,23)                                        8568 	(obj:0)
STE(3,24)                            9480.56333385004 	(obj:0)
STE(3,25)                                        8568 	(obj:0)
STE(3,26)                            9564.76600333335 	(obj:0)
STE(3,27)                            10477.3293371833 	(obj:0)
STE(3,28)                            9481.80021980951 	(obj:0)
STE(3,29)                            10478.5662231429 	(obj:0)
STE(3,30)                            11391.1295569928 	(obj:0)
STE(3,31)                            8612.15563051675 	(obj:0)
STE(3,32)                             9608.9216338501 	(obj:0)
STE(3,33)                            10521.4849677001 	(obj:0)
STE(3,34)                            9608.92163385004 	(obj:0)
STE(3,35)                            10605.6876371834 	(obj:0)
STE(3,36)                            11518.2509710334 	(obj:0)
STE(3,37)                            10522.7218536595 	(obj:0)
STE(3,38)                            11519.4878569929 	(obj:0)
STE(3,39)                            12432.0511908429 	(obj:0)
STE(4,40)                            3673.01970255524 	(obj:0)
STE(4,41)                            4669.78570588853 	(obj:0)
STE(4,42)                            5710.70733973862 	(obj:0)
STE(4,43)                            4669.78570588858 	(obj:0)
STE(4,44)                            5666.55170922188 	(obj:0)
STE(4,45)                            6707.47334307197 	(obj:0)
STE(4,46)                            5582.34903973857 	(obj:0)
STE(4,47)                            6579.11504307187 	(obj:0)
STE(4,48)                            7620.03667692196 	(obj:0)
STE(4,49)                            4669.78570588852 	(obj:0)
STE(4,50)                            5666.55170922182 	(obj:0)
STE(4,51)                            6707.47334307191 	(obj:0)
STE(4,52)                            5666.55170922187 	(obj:0)
STE(4,53)                            6663.31771255517 	(obj:0)
STE(4,54)                            7704.23934640526 	(obj:0)
STE(4,55)                            6579.11504307186 	(obj:0)
STE(4,56)                            7575.88104640515 	(obj:0)
STE(4,57)                            8616.80268025525 	(obj:0)
STE(4,58)                            5583.58592569804 	(obj:0)
STE(4,59)                            6580.35192903133 	(obj:0)
STE(4,60)                            7621.27356288143 	(obj:0)
STE(4,61)                            6580.35192903139 	(obj:0)
STE(4,62)                            7577.11793236468 	(obj:0)
STE(4,63)                            8618.03956621478 	(obj:0)
STE(4,64)                            7492.91526288138 	(obj:0)
STE(4,65)                            8489.68126621467 	(obj:0)
STE(4,66)                            9530.60290006477 	(obj:0)
STE(4,67)                            4525.54635948332 	(obj:0)
STE(4,68)                            5522.31236281661 	(obj:0)
STE(4,69)                            6563.23399666671 	(obj:0)
STE(4,70)                            5522.31236281661 	(obj:0)
STE(4,71)                             6519.0783661499 	(obj:0)
STE(4,72)                                        7560 	(obj:0)
STE(4,73)                            6434.87569666666 	(obj:0)
STE(4,74)                            7431.64169999995 	(obj:0)
STE(4,75)                            8472.56333385004 	(obj:0)
STE(4,76)                            5522.31236281661 	(obj:0)
STE(4,77)                             6519.0783661499 	(obj:0)
STE(4,78)                                        7560 	(obj:0)
STE(4,79)                            6519.07836614996 	(obj:0)
STE(4,80)                            7515.84436948325 	(obj:0)
STE(4,81)                            8556.76600333335 	(obj:0)
STE(4,82)                            7431.64169999995 	(obj:0)
STE(4,83)                            8428.40770333324 	(obj:0)
STE(4,84)                            9469.32933718334 	(obj:0)
STE(4,85)                            6436.11258262612 	(obj:0)
STE(4,86)                            7432.87858595941 	(obj:0)
STE(4,87)                            8473.80021980951 	(obj:0)
STE(4,88)                            7432.87858595947 	(obj:0)
STE(4,89)                            8429.64458929276 	(obj:0)
STE(4,90)                            9470.56622314286 	(obj:0)
STE(4,91)                            8345.44191980946 	(obj:0)
STE(4,92)                            9342.20792314275 	(obj:0)
STE(4,93)                            10383.1295569928 	(obj:0)
STE(4,94)                            5566.46799333336 	(obj:0)
STE(4,95)                            6563.23399666665 	(obj:0)
STE(4,96)                            7604.15563051675 	(obj:0)
STE(4,97)                            6563.23399666671 	(obj:0)
STE(4,98)                                        7560 	(obj:0)
STE(4,99)                             8600.9216338501 	(obj:0)
STE(4,100)                            7475.7973305167 	(obj:0)
STE(4,101)                           8472.56333384999 	(obj:0)
STE(4,102)                           9513.48496770009 	(obj:0)
STE(4,103)                           6563.23399666665 	(obj:0)
STE(4,104)                           7559.99999999994 	(obj:0)
STE(4,105)                           8600.92163385004 	(obj:0)
STE(4,106)                                       7560 	(obj:0)
STE(4,107)                           8556.76600333329 	(obj:0)
STE(4,108)                           9597.68763718339 	(obj:0)
STE(4,109)                           8472.56333384998 	(obj:0)
STE(4,110)                           9469.32933718328 	(obj:0)
STE(4,111)                           10510.2509710334 	(obj:0)
STE(4,112)                           7477.03421647616 	(obj:0)
STE(4,113)                           8473.80021980945 	(obj:0)
STE(4,114)                           9514.72185365955 	(obj:0)
STE(4,115)                           8473.80021980951 	(obj:0)
STE(4,116)                            9470.5662231428 	(obj:0)
STE(4,117)                           10511.4878569929 	(obj:0)
STE(4,118)                            9386.3635536595 	(obj:0)
STE(4,119)                           10383.1295569928 	(obj:0)
STE(4,120)                           11424.0511908429 	(obj:0)
y1(4,100)                            1833.91887346505 	(obj:0)
y1(4,101)                            936.829470465088 	(obj:0)
y1(4,103)                            1833.91887346505 	(obj:0)
y1(4,104)                            936.829470465088 	(obj:0)
y1(4,106)                            1833.91887346505 	(obj:0)
y1(4,107)                            936.829470465088 	(obj:0)
y1(4,109)                            1833.91887346505 	(obj:0)
y1(4,110)                            936.829470465088 	(obj:0)
y1(4,112)                            1833.91887346505 	(obj:0)
y1(4,113)                            936.829470465088 	(obj:0)
y1(4,115)                            1833.91887346505 	(obj:0)
y1(4,116)                            936.829470465088 	(obj:0)
y1(4,118)                            1833.91887346505 	(obj:0)
y1(4,119)                            936.829470465088 	(obj:0)
WB(3)                                 3399.3204933139 	(obj:0)
AVE(3)                                3399.3204933139 	(obj:0)
AVE(4)                               3353.21046544222 	(obj:0)
WG(1)                                3134.60043707458 	(obj:10)
WG(4)                                3353.21046544222 	(obj:10)
BG(1)                                110.784857043001 	(obj:10)
BG(2)                                3388.16693571427 	(obj:10)
BG(3)                                         3377.85 	(obj:10)
BG(4)                                980.587973807816 	(obj:10)
AVE(1)                               3134.60043707458 	(obj:0)
WB(2)                                3326.45170866643 	(obj:0)
AVE(2)                               3326.45170866643 	(obj:0)
y1(1,1)                              767.273991235274 	(obj:0)
y1(2,4)                              907.199999999948 	(obj:0)
y1(2,5)                              10.1105969999867 	(obj:0)
y1(2,7)                              907.199999999948 	(obj:0)
y1(2,8)                              10.1105969999867 	(obj:0)
y1(2,10)                             907.199999999948 	(obj:0)
y1(2,11)                             10.1105969999867 	(obj:0)
y1(3,13)                             897.089403000014 	(obj:0)
y1(3,16)                             897.089403000014 	(obj:0)
y1(3,19)                             897.089403000014 	(obj:0)
y1(3,22)                             897.089403000014 	(obj:0)
y1(3,25)                             897.089403000015 	(obj:0)
y1(3,28)                             897.089403000014 	(obj:0)
y1(3,31)                             897.089403000014 	(obj:0)
y1(3,34)                             897.089403000014 	(obj:0)
y1(3,37)                             897.089403000014 	(obj:0)
y1(4,40)                             1833.91887346505 	(obj:0)
y1(4,41)                             936.829470465088 	(obj:0)
y1(4,43)                             1833.91887346505 	(obj:0)
y1(4,44)                             936.829470465088 	(obj:0)
y1(4,46)                             1833.91887346505 	(obj:0)
y1(4,47)                             936.829470465088 	(obj:0)
y1(4,49)                             1833.91887346505 	(obj:0)
y1(4,50)                             936.829470465088 	(obj:0)
y1(4,52)                             1833.91887346505 	(obj:0)
y1(4,53)                             936.829470465088 	(obj:0)
y1(4,55)                             1833.91887346505 	(obj:0)
y1(4,56)                             936.829470465088 	(obj:0)
y1(4,58)                             1833.91887346505 	(obj:0)
y1(4,59)                             936.829470465088 	(obj:0)
y1(4,61)                             1833.91887346505 	(obj:0)
y1(4,62)                             936.829470465088 	(obj:0)
y1(4,64)                             1833.91887346505 	(obj:0)
y1(4,65)                             936.829470465088 	(obj:0)
y1(4,67)                             1833.91887346505 	(obj:0)
y1(4,68)                             936.829470465088 	(obj:0)
y1(4,70)                             1833.91887346505 	(obj:0)
y1(4,71)                             936.829470465088 	(obj:0)
y1(4,73)                             1833.91887346505 	(obj:0)
y1(4,74)                             936.829470465088 	(obj:0)
y1(4,76)                             1833.91887346505 	(obj:0)
y1(4,77)                             936.829470465088 	(obj:0)
y1(4,79)                             1833.91887346505 	(obj:0)
y1(4,80)                             936.829470465088 	(obj:0)
y1(4,82)                             1833.91887346505 	(obj:0)
y1(4,83)                             936.829470465088 	(obj:0)
y1(4,85)                             1833.91887346505 	(obj:0)
y1(4,86)                             936.829470465088 	(obj:0)
y1(4,88)                             1833.91887346505 	(obj:0)
y1(4,89)                             936.829470465088 	(obj:0)
y1(4,91)                             1833.91887346505 	(obj:0)
y1(4,92)                             936.829470465088 	(obj:0)
y1(4,94)                             1833.91887346505 	(obj:0)
y1(4,95)                             936.829470465088 	(obj:0)
y1(4,97)                             1833.91887346505 	(obj:0)
y1(4,98)                             936.829470465088 	(obj:0)
y2(1,3)                              1095.70698300004 	(obj:0)
y2(2,6)                               950.06970857143 	(obj:0)
y2(2,9)                               950.06970857143 	(obj:0)
y2(2,12)                              950.06970857143 	(obj:0)
y2(3,15)                             960.592982999988 	(obj:0)
y2(3,18)                             960.592982999988 	(obj:0)
y2(3,21)                             960.592982999988 	(obj:0)
y2(3,24)                             960.592982999988 	(obj:0)
y2(3,27)                             960.592982999988 	(obj:0)
y2(3,30)                             960.592982999988 	(obj:0)
y2(3,33)                             960.592982999988 	(obj:0)
y2(3,36)                             960.592982999988 	(obj:0)
y2(3,39)                             960.592982999988 	(obj:0)
